60
29 84
16 56
27 96
17 51
25 45
16 76
9 96
24 58
6 40
12 18
18 97
13 11
11 35
1 33
22 40
15 77
14 100
26 71
11 81
15 24
11 77
22 72
21 22
11 97
4 86
22 2
12 32
16 25
19 14
5 28
16 61
30 80
20 40
10 7
21 22
18 96
29 33
4 21
29 99
14 14
27 35
8 18
24 78
13 83
23 2
22 48
7 18
29 74
30 28
9 28
15 62
5 98
18 93
1 100
14 38
2 27
26 32
10 89
24 89
22 4
